/*********************************************
 * OPL 12.6.1.0 Data
 * Author: cholda
 * Creation Date: 11-04-2016 at 14:46:20
 *********************************************/

 n=5;
  
 //Arcs={<1,3>,<1,2>,<1,4>,<2,3>,<2,4>,<3,4>,<4,3>,<3,5>,<4,5>};
 //Capacity=[2 1 3 1 2 2 3 3 1];
  
 Arcs = {<1,2>, <1,3>, <1,4>, <2,3>, <2,4>, <3,4>, <4,3>, <3,5>, <4,5>};
 Capacity = [2 1 3 1 2 2 3 3 1];